commons/LK_FILES/TIC38-10-10-4.tsp
NAME: TIC38-10-10-4
TYPE: TSP
COMMENT: TSP
DIMENSION: 7
EDGE_WEIGHT_TYPE: EXPLICIT
EDGE_WEIGHT_FORMAT: FULL_MATRIX
EDGE_WEIGHT_SECTION
0 205 366 210 276 224 155 
205 0 412 447 228 351 334 
366 412 0 140 162 256 268 
210 447 140 0 212 117 53 
276 228 162 212 0 167 378 
224 351 256 117 167 0 422 
155 334 268 53 378 422 0 
EOF
